(declare-fun var0 () String)
(assert (RegexIn var0 (RegexConcat (RegexPlus (RegexStar (Str2Reg "a"))) (RegexConcat (RegexStar (RegexPlus (Str2Reg "999"))) (RegexConcat (RegexUnion (RegexUnion (Str2Reg "666") (Str2Reg "77")) (RegexPlus (Str2Reg "8"))) (RegexConcat (RegexPlus (RegexPlus (Str2Reg "555"))) (RegexConcat (RegexStar (RegexPlus (Str2Reg "4"))) (RegexConcat (RegexStar (RegexStar (Str2Reg "333"))) (RegexConcat (RegexStar (RegexPlus (Str2Reg "222"))) (RegexConcat (RegexPlus (RegexPlus (Str2Reg "1"))) (RegexConcat (RegexStar (RegexStar (Str2Reg "000"))) (RegexConcat (RegexStar (RegexStar (Str2Reg "~~"))) (RegexConcat (RegexStar (RegexUnion (Str2Reg "|") (Str2Reg "}}}"))) (RegexConcat (RegexStar (RegexUnion (Str2Reg "``") (Str2Reg "{"))) (RegexConcat (RegexUnion (RegexUnion (Str2Reg "]]") (Str2Reg "^^")) (RegexPlus (Str2Reg "___"))) (RegexConcat (RegexUnion (RegexUnion (Str2Reg "?") (Str2Reg "@@@")) (RegexUnion (Str2Reg "[[[") (Str2Reg "\\\\"))) (RegexConcat (RegexStar (RegexStar (Str2Reg ">"))) (RegexConcat (RegexUnion (RegexUnion (Str2Reg ";;;") (Str2Reg "<<")) (RegexPlus (Str2Reg "="))) (RegexConcat (RegexUnion (RegexStar (Str2Reg "///")) (RegexPlus (Str2Reg "::"))) (RegexConcat (RegexStar (RegexUnion (Str2Reg "--") (Str2Reg "."))) (RegexConcat (RegexStar (RegexUnion (Str2Reg "++") (Str2Reg ",,,"))) (RegexConcat (RegexStar (RegexStar (Str2Reg "**"))) (RegexConcat (RegexUnion (RegexPlus (Str2Reg "'''")) (RegexUnion (Str2Reg "(") (Str2Reg "))"))) (RegexConcat (RegexUnion (RegexUnion (Str2Reg "##") (Str2Reg "$$$")) (RegexUnion (Str2Reg "%%%") (Str2Reg "&"))) (RegexConcat (RegexPlus (RegexStar (Str2Reg "\""))) (RegexConcat (RegexUnion (RegexUnion (Str2Reg "YY") (Str2Reg "ZZZ")) (RegexStar (Str2Reg "!!"))) (RegexConcat (RegexStar (RegexPlus (Str2Reg "XX"))) (RegexConcat (RegexStar (RegexStar (Str2Reg "WWW"))) (RegexConcat (RegexPlus (RegexPlus (Str2Reg "VVV"))) (RegexConcat (RegexPlus (RegexStar (Str2Reg "UUU"))) (RegexConcat (RegexStar (RegexPlus (Str2Reg "TTT"))) (RegexConcat (RegexUnion (RegexUnion (Str2Reg "PP") (Str2Reg "Q")) (RegexUnion (Str2Reg "RRR") (Str2Reg "SSS"))) (RegexConcat (RegexStar (RegexUnion (Str2Reg "NNN") (Str2Reg "OOO"))) (RegexConcat (RegexUnion (RegexStar (Str2Reg "L")) (RegexStar (Str2Reg "MM"))) (RegexConcat (RegexPlus (RegexPlus (Str2Reg "KKK"))) (RegexConcat (RegexUnion (RegexPlus (Str2Reg "II")) (RegexPlus (Str2Reg "JJJ"))) (RegexConcat (RegexUnion (RegexStar (Str2Reg "G")) (RegexPlus (Str2Reg "HHH"))) (RegexConcat (RegexUnion (RegexStar (Str2Reg "EEE")) (RegexPlus (Str2Reg "FFF"))) (RegexConcat (RegexPlus (RegexStar (Str2Reg "DDD"))) (RegexConcat (RegexUnion (RegexUnion (Str2Reg "AAA") (Str2Reg "BBB")) (RegexStar (Str2Reg "CCC"))) (RegexConcat (RegexUnion (RegexStar (Str2Reg "yyy")) (RegexStar (Str2Reg "z"))) (RegexConcat (RegexPlus (RegexPlus (Str2Reg "xxx"))) (RegexConcat (RegexStar (RegexUnion (Str2Reg "vvv") (Str2Reg "www"))) (RegexConcat (RegexUnion (RegexStar (Str2Reg "tt")) (RegexStar (Str2Reg "u"))) (RegexConcat (RegexUnion (RegexStar (Str2Reg "rrr")) (RegexPlus (Str2Reg "sss"))) (RegexConcat (RegexPlus (RegexUnion (Str2Reg "ppp") (Str2Reg "qq"))) (RegexConcat (RegexUnion (RegexStar (Str2Reg "nn")) (RegexStar (Str2Reg "o"))) (RegexConcat (RegexUnion (RegexStar (Str2Reg "l")) (RegexPlus (Str2Reg "m"))) (RegexConcat (RegexStar (RegexUnion (Str2Reg "j") (Str2Reg "kk"))) (RegexConcat (RegexUnion (RegexStar (Str2Reg "gg")) (RegexUnion (Str2Reg "hhh") (Str2Reg "i"))) (RegexConcat (RegexPlus (RegexStar (Str2Reg "ff"))) (RegexConcat (RegexPlus (RegexUnion (Str2Reg "d") (Str2Reg "eee"))) (RegexConcat (RegexUnion (RegexPlus (Str2Reg "aaa")) (RegexUnion (Str2Reg "bb") (Str2Reg "cc"))) (RegexConcat (RegexPlus (RegexPlus (Str2Reg "9"))) (RegexConcat (RegexStar (RegexPlus (Str2Reg "888"))) (RegexConcat (RegexPlus (RegexUnion (Str2Reg "66") (Str2Reg "77"))) (RegexConcat (RegexUnion (RegexUnion (Str2Reg "3") (Str2Reg "444")) (RegexPlus (Str2Reg "5"))) (RegexConcat (RegexStar (RegexPlus (Str2Reg "22"))) (RegexUnion (RegexPlus (Str2Reg "00")) (RegexPlus (Str2Reg "1")))))))))))))))))))))))))))))))))))))))))))))))))))))))))))))
(check-sat)